(declare-fun cond17.i.i_8_124 () (_ BitVec 64))
(declare-fun i28.i.i.sink_8_155 () (_ BitVec 64))
(declare-fun cmp2.i.i_8_61 () (_ BitVec 1))
(declare-fun or.cond_8_79 () (_ BitVec 1))
(declare-fun cmp.i246.i_8_114 () (_ BitVec 1))
(declare-fun cmp1.i248.i_8_117 () (_ BitVec 1))
(declare-fun cond36.i.i_8_130 () (_ BitVec 64))
(declare-fun cmp21.i.i_8_127 () (_ BitVec 1))
(declare-fun i28.i.i_8_125 () (_ BitVec 64))
(declare-fun cmp40.i.i_8_132 () (_ BitVec 1))
(declare-fun dst_reg_8_144 () (_ BitVec 32))
(declare-fun dst_reg_8_91 () (_ BitVec 32))
(declare-fun dst_reg_8_143 () (_ BitVec 64))
(declare-fun storemerge20_8_102 () (_ BitVec 64))
(declare-fun dst_reg_8_142 () (_ BitVec 64))
(declare-fun cond53.i.i_8_134 () (_ BitVec 64))
(declare-fun dst_reg_8_141 () (_ BitVec 64))
(declare-fun dst_reg_8_88 () (_ BitVec 64))
(declare-fun dst_reg_8_140 () (_ BitVec 64))
(declare-fun dst_reg_8_139 () (_ BitVec 64))
(declare-fun or7.i.i_8_108 () (_ BitVec 64))
(declare-fun dst_reg_8_138 () (_ BitVec 64))
(declare-fun and.i.i_8_111 () (_ BitVec 64))
(declare-fun dst_reg_8_137 () (_ BitVec 32))
(declare-fun dst_reg_8_84 () (_ BitVec 32))
(declare-fun dst_reg_8_136 () (_ BitVec 32))
(declare-fun dst_reg_8_83 () (_ BitVec 32))
(declare-fun dst_reg_8_135 () (_ BitVec 32))
(declare-fun dst_reg_8_82 () (_ BitVec 32))
(declare-fun src_reg_8_154 () (_ BitVec 32))
(declare-fun src_reg_8_101 () (_ BitVec 32))
(declare-fun src_reg_8_153 () (_ BitVec 64))
(declare-fun src_reg_8_100 () (_ BitVec 64))
(declare-fun src_reg_8_152 () (_ BitVec 64))
(declare-fun src_reg_8_99 () (_ BitVec 64))
(declare-fun src_reg_8_151 () (_ BitVec 64))
(declare-fun src_reg_8_98 () (_ BitVec 64))
(declare-fun src_reg_8_150 () (_ BitVec 64))
(declare-fun src_reg_8_97 () (_ BitVec 64))
(declare-fun src_reg_8_149 () (_ BitVec 64))
(declare-fun src_reg_8_96 () (_ BitVec 64))
(declare-fun src_reg_8_148 () (_ BitVec 64))
(declare-fun src_reg_8_95 () (_ BitVec 64))
(declare-fun src_reg_8_147 () (_ BitVec 32))
(declare-fun src_reg_8_94 () (_ BitVec 32))
(declare-fun src_reg_8_146 () (_ BitVec 32))
(declare-fun src_reg_8_93 () (_ BitVec 32))
(declare-fun src_reg_8_145 () (_ BitVec 32))
(declare-fun src_reg_8_92 () (_ BitVec 32))
(declare-fun dst_reg_8_89 () (_ BitVec 64))
(declare-fun i29.i.i_8_128 () (_ BitVec 64))
(declare-fun cond.i250.i_8_120 () (_ BitVec 64))
(declare-fun cond46.i.i33.i_8_59 () (_ BitVec 64))
(declare-fun cond46.i.i.i_8_46 () (_ BitVec 64))
(declare-fun add40.i_8_81 () (_ BitVec 64))
(declare-fun i24.i.i_8_115 () (_ BitVec 64))
(declare-fun storemerge_8_73 () (_ BitVec 64))
(declare-fun cmp31.i.i_8_129 () (_ BitVec 1))
(declare-fun add.i35.i_8_62 () (_ BitVec 64))
(declare-fun spec.select21_8_71 () (_ BitVec 64))
(declare-fun retval.0.i39.i_8_67 () (_ BitVec 1))
(declare-fun add.i.i_8_60 () (_ BitVec 64))
(declare-fun spec.select_8_69 () (_ BitVec 64))
(declare-fun cmp2.i38.i_8_66 () (_ BitVec 1))
(declare-fun cmp1.i37.i_8_65 () (_ BitVec 1))
(declare-fun cmp.i36.i_8_64 () (_ BitVec 1))
(declare-fun cond19.i.i.i_8_40 () (_ BitVec 64))
(declare-fun cond19.i.i24.i_8_55 () (_ BitVec 64))
(declare-fun i27.i.i_8_122 () (_ BitVec 64))
(declare-fun i26.i.i_8_121 () (_ BitVec 64))
(declare-fun cmp12.i.i_8_123 () (_ BitVec 1))
(declare-fun i25.i.i_8_118 () (_ BitVec 64))
(declare-fun i.i245.i_8_112 () (_ BitVec 64))
(declare-fun cmp4.i.i_8_119 () (_ BitVec 1))
(declare-fun dst_reg_8_165 () (_ BitVec 32))
(declare-fun dst_reg_8_164 () (_ BitVec 64))
(declare-fun dst_reg_8_163 () (_ BitVec 64))
(declare-fun dst_reg_8_162 () (_ BitVec 64))
(declare-fun dst_reg_8_161 () (_ BitVec 64))
(declare-fun dst_reg_8_87 () (_ BitVec 64))
(declare-fun dst_reg_8_160 () (_ BitVec 64))
(declare-fun dst_reg_8_159 () (_ BitVec 64))
(declare-fun dst_reg_8_158 () (_ BitVec 32))
(declare-fun dst_reg_8_157 () (_ BitVec 32))
(declare-fun dst_reg_8_156 () (_ BitVec 32))
(declare-fun src_reg_8_175 () (_ BitVec 32))
(declare-fun src_reg_8_174 () (_ BitVec 64))
(declare-fun src_reg_8_173 () (_ BitVec 64))
(declare-fun src_reg_8_172 () (_ BitVec 64))
(declare-fun src_reg_8_171 () (_ BitVec 64))
(declare-fun src_reg_8_170 () (_ BitVec 64))
(declare-fun src_reg_8_169 () (_ BitVec 64))
(declare-fun src_reg_8_168 () (_ BitVec 32))
(declare-fun src_reg_8_167 () (_ BitVec 32))
(declare-fun src_reg_8_166 () (_ BitVec 32))
(declare-fun cmp.i.i.i.i_8_180 () (_ BitVec 1))
(declare-fun xor.i.i.i_8_178 () (_ BitVec 64))
(declare-fun i.i253.i_8_176 () (_ BitVec 64))
(declare-fun i5.i255.i_8_177 () (_ BitVec 64))
(declare-fun storemerge19_8_72 () (_ BitVec 64))
(declare-fun cmp31.i_8_78 () (_ BitVec 1))
(declare-fun cmp26.i_8_75 () (_ BitVec 1))
(declare-fun i27.i_8_77 () (_ BitVec 64))
(declare-fun cond31.i.i28.i_8_57 () (_ BitVec 64))
(declare-fun add25.i_8_74 () (_ BitVec 64))
(declare-fun cond31.i.i.i_8_43 () (_ BitVec 64))
(declare-fun cmp48.i.i_8_133 () (_ BitVec 1))
(declare-fun dst_reg_8_9 () (_ BitVec 32))
(declare-fun dst_reg_8_90 () (_ BitVec 64))
(declare-fun dst_reg_8_86 () (_ BitVec 64))
(declare-fun and6.i.i.i_8_33 () (_ BitVec 64))
(declare-fun dst_reg_8_85 () (_ BitVec 64))
(declare-fun and.i.i.i_8_31 () (_ BitVec 64))
(declare-fun dst_reg_8_2 () (_ BitVec 32))
(declare-fun dst_reg_8_1 () (_ BitVec 32))
(declare-fun src_reg_8_19 () (_ BitVec 32))
(declare-fun src_reg_8_18 () (_ BitVec 64))
(declare-fun src_reg_8_17 () (_ BitVec 64))
(declare-fun src_reg_8_16 () (_ BitVec 64))
(declare-fun src_reg_8_15 () (_ BitVec 64))
(declare-fun src_reg_8_14 () (_ BitVec 64))
(declare-fun src_reg_8_13 () (_ BitVec 64))
(declare-fun src_reg_8_12 () (_ BitVec 32))
(declare-fun src_reg_8_11 () (_ BitVec 32))
(declare-fun neg.i.i_8_110 () (_ BitVec 64))
(declare-fun add3.i.i_8_104 () (_ BitVec 64))
(declare-fun xor.i.i_8_106 () (_ BitVec 64))
(declare-fun or.i.i_8_107 () (_ BitVec 64))
(declare-fun and6.i.i6.i_8_50 () (_ BitVec 64))
(declare-fun add4.i.i_8_105 () (_ BitVec 64))
(declare-fun add.i40.i_8_103 () (_ BitVec 64))
(declare-fun and.i.i5.i_8_48 () (_ BitVec 64))
(declare-fun cond.i.i.i_8_36 () (_ BitVec 64))
(declare-fun cond.i.i18.i_8_52 () (_ BitVec 64))
(declare-fun or10.i.i22.i_8_53 () (_ BitVec 64))
(declare-fun src_reg1.sroa.24.0.copyload_8_25 () (_ BitVec 64))
(declare-fun cmp41.i.i32.i_8_58 () (_ BitVec 1))
(declare-fun src_reg1.sroa.21.0.copyload_8_24 () (_ BitVec 64))
(declare-fun cmp26.i.i27.i_8_56 () (_ BitVec 1))
(declare-fun src_reg1.sroa.18.0.copyload_8_23 () (_ BitVec 64))
(declare-fun cmp14.i.i23.i_8_54 () (_ BitVec 1))
(declare-fun src_reg1.sroa.15.0.copyload_8_22 () (_ BitVec 64))
(declare-fun cmp2.i.i17.i_8_51 () (_ BitVec 1))
(declare-fun src_reg1.sroa.11.0.copyload_8_26 () (_ BitVec 64))
(declare-fun src_reg1.sroa.3.0.copyload_8_27 () (_ BitVec 64))
(declare-fun or10.i.i.i_8_38 () (_ BitVec 64))
(declare-fun i19.i.i.i_8_44 () (_ BitVec 64))
(declare-fun cmp41.i.i.i_8_45 () (_ BitVec 1))
(declare-fun dst_reg_8_8 () (_ BitVec 64))
(declare-fun i18.i.i.i_8_41 () (_ BitVec 64))
(declare-fun cmp26.i.i.i_8_42 () (_ BitVec 1))
(declare-fun dst_reg_8_7 () (_ BitVec 64))
(declare-fun i17.i.i.i_8_37 () (_ BitVec 64))
(declare-fun cmp14.i.i.i_8_39 () (_ BitVec 1))
(declare-fun dst_reg_8_6 () (_ BitVec 64))
(declare-fun i.i.i.i_8_34 () (_ BitVec 64))
(declare-fun cmp2.i.i.i_8_35 () (_ BitVec 1))
(declare-fun dst_reg_8_5 () (_ BitVec 64))
(declare-fun i6.i.i_8_29 () (_ BitVec 64))
(declare-fun i4.i.i_8_28 () (_ BitVec 64))
(declare-fun dst_reg_8_4 () (_ BitVec 64))
(declare-fun dst_reg_8_3 () (_ BitVec 64))
(declare-fun src_reg_8_10 () (_ BitVec 32))
(declare-fun dst_reg_8_0 () (_ BitVec 32))
(declare-fun conv.i.i.i.i_8_224 () (_ BitVec 32))
(declare-fun phi.bo_8_226 () (_ BitVec 32))
(declare-fun i.i.i.i.i.i.neg_8_223 () (_ BitVec 32))
(declare-fun num.4.i.i.i.i.i_8_220 () (_ BitVec 32))
(declare-fun word.addr.4.lobit.i.i.i.i.i.neg_8_222 () (_ BitVec 64))
(declare-fun word.addr.4.i.i.i.i.i_8_219 () (_ BitVec 64))
(declare-fun num.3.i.i.i.i.i_8_212 () (_ BitVec 32))
(declare-fun sub22.i.i.i.i.i_8_216 () (_ BitVec 32))
(declare-fun tobool20.not.i.i.i.i.i_8_214 () (_ BitVec 1))
(declare-fun word.addr.3.i.i.i.i.i_8_211 () (_ BitVec 64))
(declare-fun shl23.i.i.i.i.i_8_218 () (_ BitVec 64))
(declare-fun num.2.i.i.i.i.i_8_204 () (_ BitVec 32))
(declare-fun sub16.i.i.i.i.i_8_208 () (_ BitVec 32))
(declare-fun tobool14.not.i.i.i.i.i_8_206 () (_ BitVec 1))
(declare-fun word.addr.2.i.i.i.i.i_8_203 () (_ BitVec 64))
(declare-fun shl17.i.i.i.i.i_8_210 () (_ BitVec 64))
(declare-fun num.1.i.i.i.i.i_8_196 () (_ BitVec 32))
(declare-fun sub10.i.i.i.i.i_8_200 () (_ BitVec 32))
(declare-fun tobool8.not.i.i.i.i.i_8_198 () (_ BitVec 1))
(declare-fun word.addr.1.i.i.i.i.i_8_195 () (_ BitVec 64))
(declare-fun shl11.i.i.i.i.i_8_202 () (_ BitVec 64))
(declare-fun spec.select17.i.i.i.i.i_8_188 () (_ BitVec 32))
(declare-fun sub4.i.i.i.i.i_8_192 () (_ BitVec 32))
(declare-fun tobool2.not.i.i.i.i.i_8_190 () (_ BitVec 1))
(declare-fun spec.select.i.i.i.i.i_8_185 () (_ BitVec 64))
(declare-fun shl5.i.i.i.i.i_8_194 () (_ BitVec 64))
(declare-fun tobool.not.i.i.i.i.i_8_182 () (_ BitVec 1))
(declare-fun shl.i.i.i.i.i_8_184 () (_ BitVec 64))
(declare-fun src_reg_8_268 () (_ BitVec 32))
(declare-fun src_reg_8_267 () (_ BitVec 64))
(declare-fun src_reg_8_266 () (_ BitVec 64))
(declare-fun src_reg_8_265 () (_ BitVec 64))
(declare-fun src_reg_8_264 () (_ BitVec 64))
(declare-fun src_reg_8_263 () (_ BitVec 64))
(declare-fun src_reg_8_262 () (_ BitVec 64))
(declare-fun src_reg_8_261 () (_ BitVec 32))
(declare-fun src_reg_8_260 () (_ BitVec 32))
(declare-fun src_reg_8_259 () (_ BitVec 32))
(declare-fun dst_reg_8_258 () (_ BitVec 32))
(declare-fun dst_reg_8_257 () (_ BitVec 64))
(declare-fun dst_reg_8_256 () (_ BitVec 64))
(declare-fun dst_reg_8_255 () (_ BitVec 64))
(declare-fun dst_reg_8_254 () (_ BitVec 64))
(declare-fun dst_reg_8_253 () (_ BitVec 64))
(declare-fun and.i1.i260.i_8_241 () (_ BitVec 64))
(declare-fun dst_reg_8_252 () (_ BitVec 64))
(declare-fun and4.i.i.i_8_244 () (_ BitVec 64))
(declare-fun dst_reg_8_251 () (_ BitVec 32))
(declare-fun dst_reg_8_250 () (_ BitVec 32))
(declare-fun dst_reg_8_249 () (_ BitVec 32))
(declare-fun retval.0.i.i.i.i_8_227 () (_ BitVec 32))
(declare-fun neg.i.i.i_8_243 () (_ BitVec 64))
(declare-fun or.i.i259.i_8_240 () (_ BitVec 64))
(declare-fun retval.sroa.3.0.i.i.i_8_239 () (_ BitVec 64))
(declare-fun retval.sroa.0.0.i.i.i_8_237 () (_ BitVec 64))
(declare-fun sub.i.i.i_8_234 () (_ BitVec 64))
(declare-fun cmp.i.i.i_8_229 () (_ BitVec 1))
(declare-fun and.i.i256.i_8_235 () (_ BitVec 64))
(declare-fun notmask.i.i.i_8_232 () (_ BitVec 64))
(declare-fun sh_prom.i.i.i_8_230 () (_ BitVec 64))
(assert (let ((a!1 (and (= or.cond_8_79 #b0)
                (or (= cmp2.i.i_8_61 #b0) (= cmp2.i.i_8_61 #b1))))
      (a!2 (and (= or.cond_8_79 #b1)
                (or (= cmp2.i.i_8_61 #b0) (= cmp2.i.i_8_61 #b1))))
      (a!12 (=> (or (= cmp2.i.i_8_61 #b0) (= cmp2.i.i_8_61 #b1))
                (and (= add25.i_8_74
                        (bvadd cond31.i.i.i_8_43 cond31.i.i28.i_8_57))
                     (ite (bvult add25.i_8_74 cond31.i.i28.i_8_57)
                          (= cmp26.i_8_75 #b1)
                          (= cmp26.i_8_75 #b0))
                     (= i27.i_8_77
                        (bvxor cond46.i.i33.i_8_59 #xffffffffffffffff))
                     (ite (bvugt cond46.i.i.i_8_46 i27.i_8_77)
                          (= cmp31.i_8_78 #b1)
                          (= cmp31.i_8_78 #b0))
                     (= or.cond_8_79 (bvor cmp26.i_8_75 cmp31.i_8_78))
                     (=> (= cmp2.i.i_8_61 #b1)
                         (= storemerge19_8_72 #x8000000000000000))
                     (=> (= cmp2.i.i_8_61 #b0)
                         (= storemerge19_8_72 spec.select_8_69))
                     (=> (= cmp2.i.i_8_61 #b1)
                         (= storemerge_8_73 #x7fffffffffffffff))
                     (=> (= cmp2.i.i_8_61 #b0)
                         (= storemerge_8_73 spec.select21_8_71)))))
      (a!17 (=> (= cmp2.i.i_8_61 #b0)
                (and (= add.i35.i_8_62
                        (bvadd cond19.i.i.i_8_40 cond19.i.i24.i_8_55))
                     (ite (bvslt cond19.i.i24.i_8_55 #x0000000000000000)
                          (= cmp.i36.i_8_64 #b1)
                          (= cmp.i36.i_8_64 #b0))
                     (ite (bvsgt add.i35.i_8_62 cond19.i.i.i_8_40)
                          (= cmp1.i37.i_8_65 #b1)
                          (= cmp1.i37.i_8_65 #b0))
                     (ite (bvslt add.i35.i_8_62 cond19.i.i.i_8_40)
                          (= cmp2.i38.i_8_66 #b1)
                          (= cmp2.i38.i_8_66 #b0))
                     (ite (= cmp.i36.i_8_64 #b1)
                          (= retval.0.i39.i_8_67 cmp1.i37.i_8_65)
                          (= retval.0.i39.i_8_67 cmp2.i38.i_8_66))
                     (ite (= retval.0.i39.i_8_67 #b1)
                          (= spec.select_8_69 #x8000000000000000)
                          (= spec.select_8_69 add.i.i_8_60))
                     (ite (= retval.0.i39.i_8_67 #b1)
                          (= spec.select21_8_71 #x7fffffffffffffff)
                          (= spec.select21_8_71 add.i35.i_8_62))))))
(let ((a!3 (and (= cmp1.i248.i_8_117 #b0)
                (and (= cmp.i246.i_8_114 #b0) (or a!1 a!2))))
      (a!4 (or (and (= cmp1.i248.i_8_117 #b1)
                    (and (= cmp.i246.i_8_114 #b0) (or a!1 a!2)))
               (and (= cmp.i246.i_8_114 #b1) (or a!1 a!2))))
      (a!10 (and (= add.i40.i_8_103 (bvadd and6.i.i.i_8_33 and6.i.i6.i_8_50))
                 (= add3.i.i_8_104 (bvadd and.i.i.i_8_31 and.i.i5.i_8_48))
                 (= add4.i.i_8_105 (bvadd add.i40.i_8_103 add3.i.i_8_104))
                 (= xor.i.i_8_106 (bvxor add4.i.i_8_105 add3.i.i_8_104))
                 (= or.i.i_8_107 (bvor and6.i.i.i_8_33 and6.i.i6.i_8_50))
                 (= or7.i.i_8_108 (bvor or.i.i_8_107 xor.i.i_8_106))
                 (= neg.i.i_8_110 (bvxor or7.i.i_8_108 #xffffffffffffffff))
                 (= and.i.i_8_111 (bvand add3.i.i_8_104 neg.i.i_8_110))
                 (= storemerge19_8_72 i.i245.i_8_112)
                 (ite (bvsgt i.i245.i_8_112 #xffffffffffffffff)
                      (= cmp.i246.i_8_114 #b1)
                      (= cmp.i246.i_8_114 #b0))
                 (=> a!2
                     (and (= #x00000001 src_reg_8_92)
                          (= src_reg_8_11 src_reg_8_93)
                          (= src_reg_8_12 src_reg_8_94)
                          (= src_reg_8_13 src_reg_8_95)
                          (= src_reg_8_14 src_reg_8_96)
                          (= src_reg_8_15 src_reg_8_97)
                          (= src_reg_8_16 src_reg_8_98)
                          (= src_reg_8_17 src_reg_8_99)
                          (= src_reg_8_18 src_reg_8_100)
                          (= src_reg_8_19 src_reg_8_101)
                          (= #x00000001 dst_reg_8_82)
                          (= dst_reg_8_1 dst_reg_8_83)
                          (= dst_reg_8_2 dst_reg_8_84)
                          (= and.i.i.i_8_31 dst_reg_8_85)
                          (= and6.i.i.i_8_33 dst_reg_8_86)
                          (= storemerge19_8_72 dst_reg_8_87)
                          (= storemerge_8_73 dst_reg_8_88)
                          (= #x0000000000000000 dst_reg_8_89)
                          (= cond46.i.i.i_8_46 dst_reg_8_90)
                          (= dst_reg_8_9 dst_reg_8_91)))
                 (=> a!1
                     (and (= #x00000001 src_reg_8_92)
                          (= src_reg_8_11 src_reg_8_93)
                          (= src_reg_8_12 src_reg_8_94)
                          (= src_reg_8_13 src_reg_8_95)
                          (= src_reg_8_14 src_reg_8_96)
                          (= src_reg_8_15 src_reg_8_97)
                          (= src_reg_8_16 src_reg_8_98)
                          (= src_reg_8_17 src_reg_8_99)
                          (= src_reg_8_18 src_reg_8_100)
                          (= src_reg_8_19 src_reg_8_101)
                          (= #x00000001 dst_reg_8_82)
                          (= dst_reg_8_1 dst_reg_8_83)
                          (= dst_reg_8_2 dst_reg_8_84)
                          (= and.i.i.i_8_31 dst_reg_8_85)
                          (= and6.i.i.i_8_33 dst_reg_8_86)
                          (= storemerge19_8_72 dst_reg_8_87)
                          (= storemerge_8_73 dst_reg_8_88)
                          (= add25.i_8_74 dst_reg_8_89)
                          (= cond46.i.i.i_8_46 dst_reg_8_90)
                          (= dst_reg_8_9 dst_reg_8_91)))
                 (=> a!1 (= storemerge20_8_102 add40.i_8_81))
                 (=> a!2 (= storemerge20_8_102 #xffffffffffffffff))))
      (a!20 (=> (and (= cmp.i246.i_8_114 #b0) (or a!1 a!2))
                (and (= storemerge_8_73 i24.i.i_8_115)
                     (ite (bvslt i24.i.i_8_115 #x0000000000000000)
                          (= cmp1.i248.i_8_117 #b1)
                          (= cmp1.i248.i_8_117 #b0)))))
      (a!21 (=> a!1
                (and (= add40.i_8_81
                        (bvadd cond46.i.i.i_8_46 cond46.i.i33.i_8_59))))))
(let ((a!5 (or (and (= cmp40.i.i_8_132 #b1) (and (= cmp21.i.i_8_127 #b0) a!3))
               (and (= cmp21.i.i_8_127 #b1) a!3)
               a!4))
      (a!11 (=> (and (= cmp40.i.i_8_132 #b1) (and (= cmp21.i.i_8_127 #b0) a!3))
                (and (ite (bvugt i.i245.i_8_112 i29.i.i_8_128)
                          (= cmp48.i.i_8_133 #b1)
                          (= cmp48.i.i_8_133 #b0))
                     (ite (= cmp48.i.i_8_133 #b1)
                          (= cond53.i.i_8_134 i.i245.i_8_112)
                          (= cond53.i.i_8_134 i29.i.i_8_128)))))
      (a!13 (=> a!3
                (and (= storemerge20_8_102 i28.i.i_8_125)
                     (ite (bvsgt i28.i.i_8_125 #xffffffffffffffff)
                          (= cmp21.i.i_8_127 #b1)
                          (= cmp21.i.i_8_127 #b0))
                     (= dst_reg_8_89 i29.i.i_8_128))))
      (a!14 (=> (and (= cmp40.i.i_8_132 #b0) (and (= cmp21.i.i_8_127 #b0) a!3))
                (and (= src_reg_8_92 src_reg_8_166)
                     (= src_reg_8_93 src_reg_8_167)
                     (= src_reg_8_94 src_reg_8_168)
                     (= src_reg_8_95 src_reg_8_169)
                     (= src_reg_8_96 src_reg_8_170)
                     (= src_reg_8_97 src_reg_8_171)
                     (= src_reg_8_98 src_reg_8_172)
                     (= src_reg_8_99 src_reg_8_173)
                     (= src_reg_8_100 src_reg_8_174)
                     (= src_reg_8_101 src_reg_8_175)
                     (= dst_reg_8_82 dst_reg_8_156)
                     (= dst_reg_8_83 dst_reg_8_157)
                     (= dst_reg_8_84 dst_reg_8_158)
                     (= and.i.i_8_111 dst_reg_8_159)
                     (= or7.i.i_8_108 dst_reg_8_160)
                     (= dst_reg_8_87 dst_reg_8_161)
                     (= dst_reg_8_88 dst_reg_8_162)
                     (= dst_reg_8_89 dst_reg_8_163)
                     (= storemerge20_8_102 dst_reg_8_164)
                     (= dst_reg_8_91 dst_reg_8_165))))
      (a!16 (=> a!4
                (and (= dst_reg_8_89 i25.i.i_8_118)
                     (ite (bvugt i.i245.i_8_112 i25.i.i_8_118)
                          (= cmp4.i.i_8_119 #b1)
                          (= cmp4.i.i_8_119 #b0))
                     (ite (= cmp4.i.i_8_119 #b1)
                          (= cond.i250.i_8_120 i.i245.i_8_112)
                          (= cond.i250.i_8_120 i25.i.i_8_118))
                     (= storemerge_8_73 i26.i.i_8_121)
                     (= storemerge20_8_102 i27.i.i_8_122)
                     (ite (bvult i26.i.i_8_121 i27.i.i_8_122)
                          (= cmp12.i.i_8_123 #b1)
                          (= cmp12.i.i_8_123 #b0))
                     (ite (= cmp12.i.i_8_123 #b1)
                          (= cond17.i.i_8_124 i26.i.i_8_121)
                          (= cond17.i.i_8_124 i27.i.i_8_122)))))
      (a!18 (=> (and (= cmp21.i.i_8_127 #b1) a!3)
                (and (ite (bvult i24.i.i_8_115 i28.i.i_8_125)
                          (= cmp31.i.i_8_129 #b1)
                          (= cmp31.i.i_8_129 #b0))
                     (ite (= cmp31.i.i_8_129 #b1)
                          (= cond36.i.i_8_130 i24.i.i_8_115)
                          (= cond36.i.i_8_130 i28.i.i_8_125)))))
      (a!19 (=> (and (= cmp21.i.i_8_127 #b0) a!3)
                (and (ite (bvslt i29.i.i_8_128 #x0000000000000000)
                          (= cmp40.i.i_8_132 #b1)
                          (= cmp40.i.i_8_132 #b0)))))
      (a!22 (=> (and (= cmp40.i.i_8_132 #b1) (and (= cmp21.i.i_8_127 #b0) a!3))
                (and (= src_reg_8_92 src_reg_8_145)
                     (= src_reg_8_93 src_reg_8_146)
                     (= src_reg_8_94 src_reg_8_147)
                     (= src_reg_8_95 src_reg_8_148)
                     (= src_reg_8_96 src_reg_8_149)
                     (= src_reg_8_97 src_reg_8_150)
                     (= src_reg_8_98 src_reg_8_151)
                     (= src_reg_8_99 src_reg_8_152)
                     (= src_reg_8_100 src_reg_8_153)
                     (= src_reg_8_101 src_reg_8_154)
                     (= dst_reg_8_82 dst_reg_8_135)
                     (= dst_reg_8_83 dst_reg_8_136)
                     (= dst_reg_8_84 dst_reg_8_137)
                     (= and.i.i_8_111 dst_reg_8_138)
                     (= or7.i.i_8_108 dst_reg_8_139)
                     (= cond53.i.i_8_134 dst_reg_8_140)
                     (= dst_reg_8_88 dst_reg_8_141)
                     (= cond53.i.i_8_134 dst_reg_8_142)
                     (= storemerge20_8_102 dst_reg_8_143)
                     (= dst_reg_8_91 dst_reg_8_144))))
      (a!23 (=> (and (= cmp40.i.i_8_132 #b1) (and (= cmp21.i.i_8_127 #b0) a!3))
                (= i28.i.i.sink_8_155 i28.i.i_8_125))))
(let ((a!6 (or a!5
               (and (= cmp40.i.i_8_132 #b0) (and (= cmp21.i.i_8_127 #b0) a!3))))
      (a!15 (and (= dst_reg_8_163 i.i253.i_8_176)
                 (= dst_reg_8_164 i5.i255.i_8_177)
                 (= xor.i.i.i_8_178 (bvxor i5.i255.i_8_177 i.i253.i_8_176))
                 (ite (= xor.i.i.i_8_178 #x0000000000000000)
                      (= cmp.i.i.i.i_8_180 #b1)
                      (= cmp.i.i.i.i_8_180 #b0))
                 (=> a!5
                     (and (= src_reg_8_145 src_reg_8_166)
                          (= src_reg_8_146 src_reg_8_167)
                          (= src_reg_8_147 src_reg_8_168)
                          (= src_reg_8_148 src_reg_8_169)
                          (= src_reg_8_149 src_reg_8_170)
                          (= src_reg_8_150 src_reg_8_171)
                          (= src_reg_8_151 src_reg_8_172)
                          (= src_reg_8_152 src_reg_8_173)
                          (= src_reg_8_153 src_reg_8_174)
                          (= src_reg_8_154 src_reg_8_175)
                          (= dst_reg_8_135 dst_reg_8_156)
                          (= dst_reg_8_136 dst_reg_8_157)
                          (= dst_reg_8_137 dst_reg_8_158)
                          (= dst_reg_8_138 dst_reg_8_159)
                          (= dst_reg_8_139 dst_reg_8_160)
                          (= dst_reg_8_140 dst_reg_8_161)
                          (= i28.i.i.sink_8_155 dst_reg_8_162)
                          (= dst_reg_8_142 dst_reg_8_163)
                          (= dst_reg_8_143 dst_reg_8_164)
                          (= dst_reg_8_144 dst_reg_8_165)))
                 a!14))
      (a!24 (and (=> a!4
                     (and (= src_reg_8_92 src_reg_8_145)
                          (= src_reg_8_93 src_reg_8_146)
                          (= src_reg_8_94 src_reg_8_147)
                          (= src_reg_8_95 src_reg_8_148)
                          (= src_reg_8_96 src_reg_8_149)
                          (= src_reg_8_97 src_reg_8_150)
                          (= src_reg_8_98 src_reg_8_151)
                          (= src_reg_8_99 src_reg_8_152)
                          (= src_reg_8_100 src_reg_8_153)
                          (= src_reg_8_101 src_reg_8_154)
                          (= dst_reg_8_82 dst_reg_8_135)
                          (= dst_reg_8_83 dst_reg_8_136)
                          (= dst_reg_8_84 dst_reg_8_137)
                          (= and.i.i_8_111 dst_reg_8_138)
                          (= or7.i.i_8_108 dst_reg_8_139)
                          (= cond.i250.i_8_120 dst_reg_8_140)
                          (= dst_reg_8_88 dst_reg_8_141)
                          (= cond.i250.i_8_120 dst_reg_8_142)
                          (= cond17.i.i_8_124 dst_reg_8_143)
                          (= dst_reg_8_91 dst_reg_8_144)))
                 (=> (and (= cmp21.i.i_8_127 #b1) a!3)
                     (and (= src_reg_8_92 src_reg_8_145)
                          (= src_reg_8_93 src_reg_8_146)
                          (= src_reg_8_94 src_reg_8_147)
                          (= src_reg_8_95 src_reg_8_148)
                          (= src_reg_8_96 src_reg_8_149)
                          (= src_reg_8_97 src_reg_8_150)
                          (= src_reg_8_98 src_reg_8_151)
                          (= src_reg_8_99 src_reg_8_152)
                          (= src_reg_8_100 src_reg_8_153)
                          (= src_reg_8_101 src_reg_8_154)
                          (= dst_reg_8_82 dst_reg_8_135)
                          (= dst_reg_8_83 dst_reg_8_136)
                          (= dst_reg_8_84 dst_reg_8_137)
                          (= and.i.i_8_111 dst_reg_8_138)
                          (= or7.i.i_8_108 dst_reg_8_139)
                          (= i29.i.i_8_128 dst_reg_8_140)
                          (= dst_reg_8_88 dst_reg_8_141)
                          (= dst_reg_8_89 dst_reg_8_142)
                          (= cond36.i.i_8_130 dst_reg_8_143)
                          (= dst_reg_8_91 dst_reg_8_144)))
                 a!22
                 a!23
                 (=> (and (= cmp21.i.i_8_127 #b1) a!3)
                     (= i28.i.i.sink_8_155 cond36.i.i_8_130))
                 (=> a!4 (= i28.i.i.sink_8_155 cond17.i.i_8_124)))))
(let ((a!7 (and (ite (bvugt retval.0.i.i.i.i_8_227 #x0000003f)
                     (= cmp.i.i.i_8_229 #b1)
                     (= cmp.i.i.i_8_229 #b0))
                (= sh_prom.i.i.i_8_230
                   ((_ zero_extend 32) retval.0.i.i.i.i_8_227))
                (= notmask.i.i.i_8_232
                   (bvshl #xffffffffffffffff sh_prom.i.i.i_8_230))
                (= sub.i.i.i_8_234
                   (bvxor notmask.i.i.i_8_232 #xffffffffffffffff))
                (= and.i.i256.i_8_235
                   (bvand notmask.i.i.i_8_232 i.i253.i_8_176))
                (ite (= cmp.i.i.i_8_229 #b1)
                     (= retval.sroa.0.0.i.i.i_8_237 #x0000000000000000)
                     (= retval.sroa.0.0.i.i.i_8_237 and.i.i256.i_8_235))
                (ite (= cmp.i.i.i_8_229 #b1)
                     (= retval.sroa.3.0.i.i.i_8_239 #x00000003ffffffff)
                     (= retval.sroa.3.0.i.i.i_8_239 sub.i.i.i_8_234))
                (= or.i.i259.i_8_240
                   (bvor retval.sroa.0.0.i.i.i_8_237 and.i.i_8_111))
                (= and.i1.i260.i_8_241
                   (bvand retval.sroa.3.0.i.i.i_8_239 or7.i.i_8_108))
                (= neg.i.i.i_8_243
                   (bvxor and.i1.i260.i_8_241 #xffffffffffffffff))
                (= and4.i.i.i_8_244 (bvand or.i.i259.i_8_240 neg.i.i.i_8_243))
                (=> (and (= cmp.i.i.i.i_8_180 #b0) a!6)
                    (= retval.0.i.i.i.i_8_227 phi.bo_8_226))
                (=> (and (= cmp.i.i.i.i_8_180 #b1) a!6)
                    (= retval.0.i.i.i.i_8_227 #x00000000))
                (= dst_reg_8_156 dst_reg_8_249)
                (= dst_reg_8_157 dst_reg_8_250)
                (= dst_reg_8_158 dst_reg_8_251)
                (= and4.i.i.i_8_244 dst_reg_8_252)
                (= and.i1.i260.i_8_241 dst_reg_8_253)
                (= dst_reg_8_161 dst_reg_8_254)
                (= dst_reg_8_162 dst_reg_8_255)
                (= dst_reg_8_163 dst_reg_8_256)
                (= dst_reg_8_164 dst_reg_8_257)
                (= dst_reg_8_165 dst_reg_8_258)
                (= src_reg_8_166 src_reg_8_259)
                (= src_reg_8_167 src_reg_8_260)
                (= src_reg_8_168 src_reg_8_261)
                (= src_reg_8_169 src_reg_8_262)
                (= src_reg_8_170 src_reg_8_263)
                (= src_reg_8_171 src_reg_8_264)
                (= src_reg_8_172 src_reg_8_265)
                (= src_reg_8_173 src_reg_8_266)
                (= src_reg_8_174 src_reg_8_267)
                (= src_reg_8_175 src_reg_8_268)))
      (a!9 (=> (and (= cmp.i.i.i.i_8_180 #b0) a!6)
               (and (ite (bvult xor.i.i.i_8_178 #x0000000100000000)
                         (= tobool.not.i.i.i.i.i_8_182 #b1)
                         (= tobool.not.i.i.i.i.i_8_182 #b0))
                    (= shl.i.i.i.i.i_8_184
                       (bvshl xor.i.i.i_8_178 #x0000000000000020))
                    (ite (= tobool.not.i.i.i.i.i_8_182 #b1)
                         (= spec.select.i.i.i.i.i_8_185 shl.i.i.i.i.i_8_184)
                         (= spec.select.i.i.i.i.i_8_185 xor.i.i.i_8_178))
                    (ite (= tobool.not.i.i.i.i.i_8_182 #b1)
                         (= spec.select17.i.i.i.i.i_8_188 #x0000001f)
                         (= spec.select17.i.i.i.i.i_8_188 #x0000003f))
                    (ite (bvult spec.select.i.i.i.i.i_8_185 #x0001000000000000)
                         (= tobool2.not.i.i.i.i.i_8_190 #b1)
                         (= tobool2.not.i.i.i.i.i_8_190 #b0))
                    (= sub4.i.i.i.i.i_8_192
                       (bvadd spec.select17.i.i.i.i.i_8_188 #xfffffff0))
                    (= shl5.i.i.i.i.i_8_194
                       (bvshl spec.select.i.i.i.i.i_8_185 #x0000000000000010))
                    (ite (= tobool2.not.i.i.i.i.i_8_190 #b1)
                         (= word.addr.1.i.i.i.i.i_8_195 shl5.i.i.i.i.i_8_194)
                         (= word.addr.1.i.i.i.i.i_8_195
                            spec.select.i.i.i.i.i_8_185))
                    (ite (= tobool2.not.i.i.i.i.i_8_190 #b1)
                         (= num.1.i.i.i.i.i_8_196 sub4.i.i.i.i.i_8_192)
                         (= num.1.i.i.i.i.i_8_196 spec.select17.i.i.i.i.i_8_188))
                    (ite (bvult word.addr.1.i.i.i.i.i_8_195 #x0100000000000000)
                         (= tobool8.not.i.i.i.i.i_8_198 #b1)
                         (= tobool8.not.i.i.i.i.i_8_198 #b0))
                    (= sub10.i.i.i.i.i_8_200
                       (bvadd num.1.i.i.i.i.i_8_196 #xfffffff8))
                    (= shl11.i.i.i.i.i_8_202
                       (bvshl word.addr.1.i.i.i.i.i_8_195 #x0000000000000008))
                    (ite (= tobool8.not.i.i.i.i.i_8_198 #b1)
                         (= word.addr.2.i.i.i.i.i_8_203 shl11.i.i.i.i.i_8_202)
                         (= word.addr.2.i.i.i.i.i_8_203
                            word.addr.1.i.i.i.i.i_8_195))
                    (ite (= tobool8.not.i.i.i.i.i_8_198 #b1)
                         (= num.2.i.i.i.i.i_8_204 sub10.i.i.i.i.i_8_200)
                         (= num.2.i.i.i.i.i_8_204 num.1.i.i.i.i.i_8_196))
                    (ite (bvult word.addr.2.i.i.i.i.i_8_203 #x1000000000000000)
                         (= tobool14.not.i.i.i.i.i_8_206 #b1)
                         (= tobool14.not.i.i.i.i.i_8_206 #b0))
                    (= sub16.i.i.i.i.i_8_208
                       (bvadd num.2.i.i.i.i.i_8_204 #xfffffffc))
                    (= shl17.i.i.i.i.i_8_210
                       (bvshl word.addr.2.i.i.i.i.i_8_203 #x0000000000000004))
                    (ite (= tobool14.not.i.i.i.i.i_8_206 #b1)
                         (= word.addr.3.i.i.i.i.i_8_211 shl17.i.i.i.i.i_8_210)
                         (= word.addr.3.i.i.i.i.i_8_211
                            word.addr.2.i.i.i.i.i_8_203))
                    (ite (= tobool14.not.i.i.i.i.i_8_206 #b1)
                         (= num.3.i.i.i.i.i_8_212 sub16.i.i.i.i.i_8_208)
                         (= num.3.i.i.i.i.i_8_212 num.2.i.i.i.i.i_8_204))
                    (ite (bvult word.addr.3.i.i.i.i.i_8_211 #x4000000000000000)
                         (= tobool20.not.i.i.i.i.i_8_214 #b1)
                         (= tobool20.not.i.i.i.i.i_8_214 #b0))
                    (= sub22.i.i.i.i.i_8_216
                       (bvadd num.3.i.i.i.i.i_8_212 #x000000fe))
                    (= shl23.i.i.i.i.i_8_218
                       (bvshl word.addr.3.i.i.i.i.i_8_211 #x0000000000000002))
                    (ite (= tobool20.not.i.i.i.i.i_8_214 #b1)
                         (= word.addr.4.i.i.i.i.i_8_219 shl23.i.i.i.i.i_8_218)
                         (= word.addr.4.i.i.i.i.i_8_219
                            word.addr.3.i.i.i.i.i_8_211))
                    (ite (= tobool20.not.i.i.i.i.i_8_214 #b1)
                         (= num.4.i.i.i.i.i_8_220 sub22.i.i.i.i.i_8_216)
                         (= num.4.i.i.i.i.i_8_220 num.3.i.i.i.i.i_8_212))
                    (= word.addr.4.lobit.i.i.i.i.i.neg_8_222
                       (bvlshr word.addr.4.i.i.i.i.i_8_219 #x000000000000003f))
                    (= i.i.i.i.i.i.neg_8_223
                       ((_ extract 31 0) word.addr.4.lobit.i.i.i.i.i.neg_8_222))
                    (= conv.i.i.i.i_8_224
                       (bvadd num.4.i.i.i.i.i_8_220 i.i.i.i.i.i.neg_8_223))
                    (= phi.bo_8_226 (bvand conv.i.i.i.i_8_224 #x000000ff))))))
(let ((a!8 (=> (or (and (= cmp.i.i.i.i_8_180 #b0) a!6)
                   (and (= cmp.i.i.i.i_8_180 #b1) a!6))
               a!7)))
  (and a!8
       a!9
       (= dst_reg_8_0 dst_reg_8_0)
       (= dst_reg_8_1 dst_reg_8_1)
       (= dst_reg_8_2 dst_reg_8_2)
       (= dst_reg_8_3 dst_reg_8_3)
       (= dst_reg_8_4 dst_reg_8_4)
       (= dst_reg_8_5 dst_reg_8_5)
       (= dst_reg_8_6 dst_reg_8_6)
       (= dst_reg_8_7 dst_reg_8_7)
       (= dst_reg_8_8 dst_reg_8_8)
       (= dst_reg_8_9 dst_reg_8_9)
       (= src_reg_8_10 src_reg_8_10)
       (= src_reg_8_11 src_reg_8_11)
       (= src_reg_8_12 src_reg_8_12)
       (= src_reg_8_13 src_reg_8_13)
       (= src_reg_8_14 src_reg_8_14)
       (= src_reg_8_15 src_reg_8_15)
       (= src_reg_8_16 src_reg_8_16)
       (= src_reg_8_17 src_reg_8_17)
       (= src_reg_8_18 src_reg_8_18)
       (= src_reg_8_19 src_reg_8_19)
       (= src_reg_8_15 src_reg1.sroa.15.0.copyload_8_22)
       (= src_reg_8_16 src_reg1.sroa.18.0.copyload_8_23)
       (= src_reg_8_17 src_reg1.sroa.21.0.copyload_8_24)
       (= src_reg_8_18 src_reg1.sroa.24.0.copyload_8_25)
       (= src_reg_8_14 src_reg1.sroa.11.0.copyload_8_26)
       (= src_reg_8_13 src_reg1.sroa.3.0.copyload_8_27)
       (= dst_reg_8_3 i4.i.i_8_28)
       (= dst_reg_8_4 i6.i.i_8_29)
       (= and.i.i.i_8_31 (bvand i4.i.i_8_28 #x00000000ffffffff))
       (= and6.i.i.i_8_33 (bvand i6.i.i_8_29 #x00000000ffffffff))
       (= dst_reg_8_5 i.i.i.i_8_34)
       (ite (bvsgt i.i.i.i_8_34 and.i.i.i_8_31)
            (= cmp2.i.i.i_8_35 #b1)
            (= cmp2.i.i.i_8_35 #b0))
       (ite (= cmp2.i.i.i_8_35 #b1)
            (= cond.i.i.i_8_36 i.i.i.i_8_34)
            (= cond.i.i.i_8_36 and.i.i.i_8_31))
       (= dst_reg_8_6 i17.i.i.i_8_37)
       (= or10.i.i.i_8_38 (bvor and6.i.i.i_8_33 and.i.i.i_8_31))
       (ite (bvslt i17.i.i.i_8_37 or10.i.i.i_8_38)
            (= cmp14.i.i.i_8_39 #b1)
            (= cmp14.i.i.i_8_39 #b0))
       (ite (= cmp14.i.i.i_8_39 #b1)
            (= cond19.i.i.i_8_40 i17.i.i.i_8_37)
            (= cond19.i.i.i_8_40 or10.i.i.i_8_38))
       (= dst_reg_8_7 i18.i.i.i_8_41)
       (ite (bvugt i18.i.i.i_8_41 and.i.i.i_8_31)
            (= cmp26.i.i.i_8_42 #b1)
            (= cmp26.i.i.i_8_42 #b0))
       (ite (= cmp26.i.i.i_8_42 #b1)
            (= cond31.i.i.i_8_43 i18.i.i.i_8_41)
            (= cond31.i.i.i_8_43 and.i.i.i_8_31))
       (= dst_reg_8_8 i19.i.i.i_8_44)
       (ite (bvult i19.i.i.i_8_44 or10.i.i.i_8_38)
            (= cmp41.i.i.i_8_45 #b1)
            (= cmp41.i.i.i_8_45 #b0))
       (ite (= cmp41.i.i.i_8_45 #b1)
            (= cond46.i.i.i_8_46 i19.i.i.i_8_44)
            (= cond46.i.i.i_8_46 or10.i.i.i_8_38))
       (= and.i.i5.i_8_48
          (bvand src_reg1.sroa.3.0.copyload_8_27 #x00000000ffffffff))
       (= and6.i.i6.i_8_50
          (bvand src_reg1.sroa.11.0.copyload_8_26 #x00000000ffffffff))
       (ite (bvsgt src_reg1.sroa.15.0.copyload_8_22 and.i.i5.i_8_48)
            (= cmp2.i.i17.i_8_51 #b1)
            (= cmp2.i.i17.i_8_51 #b0))
       (ite (= cmp2.i.i17.i_8_51 #b1)
            (= cond.i.i18.i_8_52 src_reg1.sroa.15.0.copyload_8_22)
            (= cond.i.i18.i_8_52 and.i.i5.i_8_48))
       (= or10.i.i22.i_8_53 (bvor and.i.i5.i_8_48 and6.i.i6.i_8_50))
       (ite (bvslt src_reg1.sroa.18.0.copyload_8_23 or10.i.i22.i_8_53)
            (= cmp14.i.i23.i_8_54 #b1)
            (= cmp14.i.i23.i_8_54 #b0))
       (ite (= cmp14.i.i23.i_8_54 #b1)
            (= cond19.i.i24.i_8_55 src_reg1.sroa.18.0.copyload_8_23)
            (= cond19.i.i24.i_8_55 or10.i.i22.i_8_53))
       (ite (bvugt src_reg1.sroa.21.0.copyload_8_24 and.i.i5.i_8_48)
            (= cmp26.i.i27.i_8_56 #b1)
            (= cmp26.i.i27.i_8_56 #b0))
       (ite (= cmp26.i.i27.i_8_56 #b1)
            (= cond31.i.i28.i_8_57 src_reg1.sroa.21.0.copyload_8_24)
            (= cond31.i.i28.i_8_57 and.i.i5.i_8_48))
       (ite (bvult src_reg1.sroa.24.0.copyload_8_25 or10.i.i22.i_8_53)
            (= cmp41.i.i32.i_8_58 #b1)
            (= cmp41.i.i32.i_8_58 #b0))
       (ite (= cmp41.i.i32.i_8_58 #b1)
            (= cond46.i.i33.i_8_59 src_reg1.sroa.24.0.copyload_8_25)
            (= cond46.i.i33.i_8_59 or10.i.i22.i_8_53))
       (= add.i.i_8_60 (bvadd cond.i.i.i_8_36 cond.i.i18.i_8_52))
       (ite (bvslt add.i.i_8_60 cond.i.i.i_8_36)
            (= cmp2.i.i_8_61 #b1)
            (= cmp2.i.i_8_61 #b0))
       (=> (or a!1 a!2) a!10)
       a!11
       a!12
       a!13
       (=> a!6 a!15)
       a!16
       a!17
       a!18
       a!19
       a!20
       a!21
       (=> a!5 a!24)))))))))

;{"dst_reg":["dst_reg_8_0",[""],"dst_reg_8_1","dst_reg_8_2",["dst_reg_8_3","dst_reg_8_4"],"dst_reg_8_5","dst_reg_8_6","dst_reg_8_7","dst_reg_8_8","dst_reg_8_9"],"src_reg":["src_reg_8_10",[""],"src_reg_8_11","src_reg_8_12",["src_reg_8_13","src_reg_8_14"],"src_reg_8_15","src_reg_8_16","src_reg_8_17","src_reg_8_18","src_reg_8_19"]}
;{"dst_reg":["dst_reg_8_249",[""],"dst_reg_8_250","dst_reg_8_251",["dst_reg_8_252","dst_reg_8_253"],"dst_reg_8_254","dst_reg_8_255","dst_reg_8_256","dst_reg_8_257","dst_reg_8_258"],"src_reg":["src_reg_8_259",[""],"src_reg_8_260","src_reg_8_261",["src_reg_8_262","src_reg_8_263"],"src_reg_8_264","src_reg_8_265","src_reg_8_266","src_reg_8_267","src_reg_8_268"]}
